[[89, 90, 99, 98, 97, 88, 87, 96, 86, 95, 94, 93], [92, 91, 82, 83, 73, 84, 85, 76, 75, 77, 78, 68, 67, 59, 58], [66, 74, 65, 64, 56, 57, 55, 46, 47, 49, 50, 48, 38, 39, 40], [41, 32, 33, 31, 30, 29, 37, 28, 19, 20, 21, 22, 13, 12], [11, 10, 2, 3, 4, 14, 5, 6, 7, 8, 9, 18, 17, 16], [15, 23, 24, 25, 26, 27, 35, 36, 44, 34, 42, 43, 45, 54, 53], [52, 51, 60, 63, 62, 61, 72, 71, 70, 69, 80, 81, 79]]